D = 2;
n = [ 4 4 ];

N = 8;
d = [ 1 1 1 1 2 2 2 2 ];
m = [
    [ 1.00 0.95 0.50 0.35 0.00 0.20 0.10 0.35 ];
    [ 0.95 1.00 0.70 0.95 0.35 0.20 0.60 0.65 ];
    [ 0.50 0.70 1.00 0.45 0.75 0.55 0.80 0.50 ];
    [ 0.35 0.95 0.45 1.00 0.40 0.70 0.70 0.05 ];
    [ 0.00 0.35 0.75 0.40 1.00 0.45 0.85 0.35 ];
    [ 0.20 0.20 0.55 0.70 0.45 1.00 0.45 0.45 ];
    [ 0.10 0.60 0.80 0.70 0.85 0.45 1.00 1.00 ];
    [ 0.35 0.65 0.50 0.05 0.35 0.45 1.00 1.00 ];
];
